NAME: random_20_4
TYPE: TSP
COMMENT: random_20_4
DIMENSION: 20
EDGE_WEIGHT_TYPE: EUC_2D
NODE_COORD_SECTION
1 163 349
2 321 190
3 351 128
4 325 382
5 429 184
6 254 250
7 376 223
8 381 141
9 472 27
10 487 482
11 124 421
12 344 462
13 219 235
14 284 446
15 178 61
16 156 350
17 83 0
18 106 235
19 385 227
20 329 483
